% demand
num_movements = 24;
loading_factor = [1500, 800, 1600, 1200, 1250, 2000, 950, 1450, 1900, 1500, 1400, 1500, 1250, 1550, 1300, 2000, 1000, 1850, 850, 850, 1400, 850, 950, 900];
pickup_time = [0, 0, 0, 1, 1, 1, 1, 2, 3, 3, 4, 6, 6, 6, 8, 8, 8, 10, 10, 10, 10, 11, 11, 11];
delivery_time = [1, 1, 2, 4, 6, 2, 7, 3, 6, 6, 11, 8, 10, 7, 10, 10, 10, 11, 12, 12, 12, 12, 12, 12];

% transporter definition
total_capacity = 7000;
num_decks = 3;
capacity = [3000, 1000, 3000];

% ways out of decks
num_ways_out = 1;
paths_out = array3d(decks, ways_out, decks, [
% ways out of deck d1
2, 3, 0, 

% ways out of deck d2
3, 0, 0, 

% ways out of deck d3
0, 0, 0,	

]);

